NAME modelo_3
OBJSENSE MAX
ROWS
 N  OBJ
 G  c0      
 L  c1      
 G  c2      
 G  c3      
 G  c4      
 G  c5      
 G  c6      
 G  c7      
 L  c8      
 L  c9      
 L  c10     
 L  c11     
 L  c12     
 L  c13     
 G  c14     
 L  c15     
 G  c16     
 L  c17     
 G  c18     
 L  c19     
 G  c20     
 L  c21     
COLUMNS
    MARKER    'MARKER'                 'INTORG'
    Macarrão,trigo,cru0  OBJ       37.112
    Macarrão,trigo,cru0  c0        37.1
    Macarrão,trigo,cru0  c1        0.4
    Macarrão,trigo,cru0  c2        1
    Macarrão,trigo,cru0  c3        1.7
    Macarrão,trigo,cru0  c4        0.7
    Macarrão,trigo,cru0  c5        0.2
    Macarrão,trigo,cru0  c8        1
    Macarrão,trigo,cru0  c9        1.7
    Macarrão,trigo,cru0  c10       0.7
    Macarrão,trigo,cru0  c11       0.2
    Macarrão,trigo,cru0  c14       31.5332
    Macarrão,trigo,cru0  c15       24.1108
    Macarrão,trigo,cru0  c16       -5.5668
    Macarrão,trigo,cru0  c17       -1.4844800000000001e+01
    Macarrão,trigo,cru0  c19       -5.5668000000000006e+02
    Macarrão,trigo,cru0  c20       -1.8556000000000001e+00
    Macarrão,trigo,cru0  c21       -5.5668
    Queijo,ricota1  OBJ       1.3972999999999999e+01
    Queijo,ricota1  c0        13.9
    Queijo,ricota1  c1        0.8
    Queijo,ricota1  c2        1.2
    Queijo,ricota1  c3        25.3
    Queijo,ricota1  c4        28.2
    Queijo,ricota1  c7        5.2
    Queijo,ricota1  c8        1.2
    Queijo,ricota1  c9        25.3
    Queijo,ricota1  c10       28.2
    Queijo,ricota1  c13       5.2
    Queijo,ricota1  c14       11.80405
    Queijo,ricota1  c15       9.0094500000000011e+00
    Queijo,ricota1  c16       -2.0959499999999998e+00
    Queijo,ricota1  c17       -5.5892
    Queijo,ricota1  c19       -2.0959499999999997e+02
    Queijo,ricota1  c20       -0.69865
    Queijo,ricota1  c21       -2.0959499999999998e+00
    Goiaba,doce,cascão2  OBJ       2.8558999999999997e+01
    Goiaba,doce,cascão2  c0        28.5
    Goiaba,doce,cascão2  c1        0.8
    Goiaba,doce,cascão2  c3        1.4
    Goiaba,doce,cascão2  c4        1.1
    Goiaba,doce,cascão2  c5        0.4
    Goiaba,doce,cascão2  c9        1.4
    Goiaba,doce,cascão2  c10       1.1
    Goiaba,doce,cascão2  c11       0.4
    Goiaba,doce,cascão2  c14       24.21615
    Goiaba,doce,cascão2  c15       1.8504350000000002e+01
    Goiaba,doce,cascão2  c16       -4.2838499999999993e+00
    Goiaba,doce,cascão2  c17       -11.4236
    Goiaba,doce,cascão2  c19       -428.385
    Goiaba,doce,cascão2  c20       -1.42795
    Goiaba,doce,cascão2  c21       -4.2838499999999993e+00
    Pastel,decarne,frito3  OBJ       38.837
    Pastel,decarne,frito3  c0        38.8
    Pastel,decarne,frito3  c2        1
    Pastel,decarne,frito3  c3        1.2
    Pastel,decarne,frito3  c4        103.9
    Pastel,decarne,frito3  c6        0.2
    Pastel,decarne,frito3  c8        1
    Pastel,decarne,frito3  c9        1.2
    Pastel,decarne,frito3  c10       103.9
    Pastel,decarne,frito3  c12       0.2
    Pastel,decarne,frito3  c14       -5.8255500000000007e+00
    Pastel,decarne,frito3  c15       -13.59295
    Pastel,decarne,frito3  c16       32.97445
    Pastel,decarne,frito3  c17       2.3265199999999993e+01
    Pastel,decarne,frito3  c19       -5.8255500000000006e+02
    Pastel,decarne,frito3  c20       -1.9418500000000003e+00
    Pastel,decarne,frito3  c21       -5.8255500000000007e+00
    Lentilha,crua4  OBJ       33.914
    Lentilha,crua4  c0        33.9
    Lentilha,crua4  c1        0.3
    Lentilha,crua4  c2        2.3
    Lentilha,crua4  c3        5.3
    Lentilha,crua4  c5        1.6
    Lentilha,crua4  c6        0.7
    Lentilha,crua4  c8        2.3
    Lentilha,crua4  c9        5.3
    Lentilha,crua4  c11       1.6
    Lentilha,crua4  c12       0.7
    Lentilha,crua4  c14       -5.0871
    Lentilha,crua4  c15       -11.8699
    Lentilha,crua4  c16       28.8129
    Lentilha,crua4  c17       2.0334399999999995e+01
    Lentilha,crua4  c19       -5.0871000000000004e+02
    Lentilha,crua4  c20       -1.6957000000000002e+00
    Lentilha,crua4  c21       -5.0871
    Acelga,crua5  OBJ       2.0940000000000003e+00
    Acelga,crua5  c0        2
    Acelga,crua5  c1        0.3
    Acelga,crua5  c2        0.1
    Acelga,crua5  c3        4.2
    Acelga,crua5  c4        0.1
    Acelga,crua5  c5        0.1
    Acelga,crua5  c8        0.1
    Acelga,crua5  c9        4.2
    Acelga,crua5  c10       0.1
    Acelga,crua5  c11       0.1
    Acelga,crua5  c14       -3.1410000000000005e-01
    Acelga,crua5  c15       -7.3290000000000011e-01
    Acelga,crua5  c16       1.6859
    Acelga,crua5  c17       1.1623999999999999e+00
    Acelga,crua5  c19       -3.1410000000000004e+01
    Acelga,crua5  c20       -1.0470000000000002e-01
    Acelga,crua5  c21       -3.1410000000000005e-01
    Carne,bovina,miolodealcatra,semgordura,cru6  OBJ       16.287
    Carne,bovina,miolodealcatra,semgordura,cru6  c0        16.2
    Carne,bovina,miolodealcatra,semgordura,cru6  c1        0.3
    Carne,bovina,miolodealcatra,semgordura,cru6  c2        2.1
    Carne,bovina,miolodealcatra,semgordura,cru6  c3        0.3
    Carne,bovina,miolodealcatra,semgordura,cru6  c4        4.3
    Carne,bovina,miolodealcatra,semgordura,cru6  c6        0.1
    Carne,bovina,miolodealcatra,semgordura,cru6  c7        0.3
    Carne,bovina,miolodealcatra,semgordura,cru6  c8        2.1
    Carne,bovina,miolodealcatra,semgordura,cru6  c9        0.3
    Carne,bovina,miolodealcatra,semgordura,cru6  c10       4.3
    Carne,bovina,miolodealcatra,semgordura,cru6  c12       0.1
    Carne,bovina,miolodealcatra,semgordura,cru6  c13       0.3
    Carne,bovina,miolodealcatra,semgordura,cru6  c14       -2.44305
    Carne,bovina,miolodealcatra,semgordura,cru6  c15       -5.7004499999999991e+00
    Carne,bovina,miolodealcatra,semgordura,cru6  c16       13.75695
    Carne,bovina,miolodealcatra,semgordura,cru6  c17       9.6851999999999983e+00
    Carne,bovina,miolodealcatra,semgordura,cru6  c19       -2.4430499999999998e+02
    Carne,bovina,miolodealcatra,semgordura,cru6  c20       -0.81435
    Carne,bovina,miolodealcatra,semgordura,cru6  c21       -2.44305
    Ovo,decodorna,inteiro,cru7  OBJ       17.689
    Ovo,decodorna,inteiro,cru7  c0        17.6
    Ovo,decodorna,inteiro,cru7  c1        0.5
    Ovo,decodorna,inteiro,cru7  c2        1.3
    Ovo,decodorna,inteiro,cru7  c3        7.8
    Ovo,decodorna,inteiro,cru7  c4        12.8
    Ovo,decodorna,inteiro,cru7  c6        0.3
    Ovo,decodorna,inteiro,cru7  c7        30.5
    Ovo,decodorna,inteiro,cru7  c8        1.3
    Ovo,decodorna,inteiro,cru7  c9        7.8
    Ovo,decodorna,inteiro,cru7  c10       12.8
    Ovo,decodorna,inteiro,cru7  c12       0.3
    Ovo,decodorna,inteiro,cru7  c13       30.5
    Ovo,decodorna,inteiro,cru7  c14       -2.65335
    Ovo,decodorna,inteiro,cru7  c15       -6.1911499999999995e+00
    Ovo,decodorna,inteiro,cru7  c16       1.4946650000000002e+01
    Ovo,decodorna,inteiro,cru7  c17       10.5244
    Ovo,decodorna,inteiro,cru7  c19       -265.335
    Ovo,decodorna,inteiro,cru7  c20       -8.8445000000000007e-01
    Ovo,decodorna,inteiro,cru7  c21       -2.65335
    Laranja,daterra,suco8  OBJ       4.096
    Laranja,daterra,suco8  c0        4
    Laranja,daterra,suco8  c1        0.3
    Laranja,daterra,suco8  c3        1.3
    Laranja,daterra,suco8  c5        0.1
    Laranja,daterra,suco8  c9        1.3
    Laranja,daterra,suco8  c11       0.1
    Laranja,daterra,suco8  c14       -0.6144
    Laranja,daterra,suco8  c15       -1.4336
    Laranja,daterra,suco8  c16       -0.6144
    Laranja,daterra,suco8  c17       -1.6384
    Laranja,daterra,suco8  c18       4
    Laranja,daterra,suco8  c19       -57.44
    Laranja,daterra,suco8  c20       -0.2048
    Laranja,daterra,suco8  c21       -0.6144
    Seletadelegumes,enlatada9  OBJ       5.6530000000000005e+00
    Seletadelegumes,enlatada9  c0        5.6
    Seletadelegumes,enlatada9  c1        0.3
    Seletadelegumes,enlatada9  c2        0.3
    Seletadelegumes,enlatada9  c3        1.6
    Seletadelegumes,enlatada9  c4        39.8
    Seletadelegumes,enlatada9  c5        0.3
    Seletadelegumes,enlatada9  c6        0.1
    Seletadelegumes,enlatada9  c8        0.3
    Seletadelegumes,enlatada9  c9        1.6
    Seletadelegumes,enlatada9  c10       39.8
    Seletadelegumes,enlatada9  c11       0.3
    Seletadelegumes,enlatada9  c12       0.1
    Seletadelegumes,enlatada9  c14       -8.4795000000000009e-01
    Seletadelegumes,enlatada9  c15       -1.97855
    Seletadelegumes,enlatada9  c16       -8.4795000000000009e-01
    Seletadelegumes,enlatada9  c17       -2.2612
    Seletadelegumes,enlatada9  c18       5.6
    Seletadelegumes,enlatada9  c19       -7.9195000000000007e+01
    Seletadelegumes,enlatada9  c20       -0.28265
    Seletadelegumes,enlatada9  c21       -8.4795000000000009e-01
    Atum,fresco,cru10  OBJ       11.75
    Atum,fresco,cru10  c0        11.7
    Atum,fresco,cru10  c1        0.7
    Atum,fresco,cru10  c2        2.5
    Atum,fresco,cru10  c3        0.6
    Atum,fresco,cru10  c4        3
    Atum,fresco,cru10  c6        0.1
    Atum,fresco,cru10  c7        2
    Atum,fresco,cru10  c8        2.5
    Atum,fresco,cru10  c9        0.6
    Atum,fresco,cru10  c10       3
    Atum,fresco,cru10  c12       0.1
    Atum,fresco,cru10  c13       2
    Atum,fresco,cru10  c14       -1.7625
    Atum,fresco,cru10  c15       -4.1125
    Atum,fresco,cru10  c16       -1.7625
    Atum,fresco,cru10  c17       -4.7
    Atum,fresco,cru10  c18       11.7
    Atum,fresco,cru10  c19       -164.55
    Atum,fresco,cru10  c20       -0.5875
    Atum,fresco,cru10  c21       -1.7625
    CremedeLeite11  OBJ       22.148
    CremedeLeite11  c0        22.1
    CremedeLeite11  c1        0.4
    CremedeLeite11  c2        0.1
    CremedeLeite11  c3        8.2
    CremedeLeite11  c4        5.1
    CremedeLeite11  c7        12.7
    CremedeLeite11  c8        0.1
    CremedeLeite11  c9        8.2
    CremedeLeite11  c10       5.1
    CremedeLeite11  c13       12.7
    CremedeLeite11  c14       -3.3222
    CremedeLeite11  c15       -7.7517999999999994e+00
    CremedeLeite11  c16       -3.3222
    CremedeLeite11  c17       -8.8592
    CremedeLeite11  c18       22.1
    CremedeLeite11  c19       -3.1011999999999995e+02
    CremedeLeite11  c20       -1.1074
    CremedeLeite11  c21       -3.3222
    Tomate,purê12  OBJ       2.794
    Tomate,purê12  c0        2.7
    Tomate,purê12  c1        0.5
    Tomate,purê12  c2        0.1
    Tomate,purê12  c3        1.3
    Tomate,purê12  c4        10.3
    Tomate,purê12  c5        0.1
    Tomate,purê12  c6        0.1
    Tomate,purê12  c8        0.1
    Tomate,purê12  c9        1.3
    Tomate,purê12  c10       10.3
    Tomate,purê12  c11       0.1
    Tomate,purê12  c12       0.1
    Tomate,purê12  c14       -0.4191
    Tomate,purê12  c15       -0.9779
    Tomate,purê12  c16       -0.4191
    Tomate,purê12  c17       -1.1176000000000001e+00
    Tomate,purê12  c19       -4.1910000000000004e+01
    Tomate,purê12  c20       2.5603000000000002e+00
    Tomate,purê12  c21       2.2809000000000004e+00
    Margarina,comóleohidrogenado,comsal(65%delipídeos)13  OBJ       59.612
    Margarina,comóleohidrogenado,comsal(65%delipídeos)13  c0        59.6
    Margarina,comóleohidrogenado,comsal(65%delipídeos)13  c3        0.5
    Margarina,comóleohidrogenado,comsal(65%delipídeos)13  c4        89.4
    Margarina,comóleohidrogenado,comsal(65%delipídeos)13  c7        46.2
    Margarina,comóleohidrogenado,comsal(65%delipídeos)13  c9        0.5
    Margarina,comóleohidrogenado,comsal(65%delipídeos)13  c10       89.4
    Margarina,comóleohidrogenado,comsal(65%delipídeos)13  c13       46.2
    Margarina,comóleohidrogenado,comsal(65%delipídeos)13  c14       -8.9418
    Margarina,comóleohidrogenado,comsal(65%delipídeos)13  c15       -20.8642
    Margarina,comóleohidrogenado,comsal(65%delipídeos)13  c16       -8.9418
    Margarina,comóleohidrogenado,comsal(65%delipídeos)13  c17       -2.3844800000000003e+01
    Margarina,comóleohidrogenado,comsal(65%delipídeos)13  c19       -8.9418000000000006e+02
    Margarina,comóleohidrogenado,comsal(65%delipídeos)13  c20       56.6194
    Margarina,comóleohidrogenado,comsal(65%delipídeos)13  c21       50.6582
    Melancia,crua14  OBJ       3.261
    Melancia,crua14  c0        3.2
    Melancia,crua14  c1        0.1
    Melancia,crua14  c3        0.7
    Melancia,crua14  c9        0.7
    Melancia,crua14  c14       -0.48915
    Melancia,crua14  c15       -1.1413499999999999e+00
    Melancia,crua14  c16       -0.48915
    Melancia,crua14  c17       -1.3044000000000002e+00
    Melancia,crua14  c19       -48.915
    Melancia,crua14  c20       3.03695
    Melancia,crua14  c21       2.71085
    MARKER    'MARKER'                 'INTEND'
RHS
    RHS1      c0        2400
    RHS1      c1        500
    RHS1      c2        56
    RHS1      c3        1000
    RHS1      c4        1500
    RHS1      c5        38
    RHS1      c6        8
    RHS1      c7        900
    RHS1      c8        56
    RHS1      c9        1000
    RHS1      c10       1500
    RHS1      c11       38
    RHS1      c12       8
    RHS1      c13       900
BOUNDS
 LO BND1      Macarrão,trigo,cru0  1
 UP BND1      Macarrão,trigo,cru0  151
 LO BND1      Queijo,ricota1  1
 UP BND1      Queijo,ricota1  151
 LO BND1      Goiaba,doce,cascão2  1
 UP BND1      Goiaba,doce,cascão2  151
 LO BND1      Pastel,decarne,frito3  1
 UP BND1      Pastel,decarne,frito3  151
 LO BND1      Lentilha,crua4  1
 UP BND1      Lentilha,crua4  151
 LO BND1      Acelga,crua5  1
 UP BND1      Acelga,crua5  151
 LO BND1      Carne,bovina,miolodealcatra,semgordura,cru6  1
 UP BND1      Carne,bovina,miolodealcatra,semgordura,cru6  151
 LO BND1      Ovo,decodorna,inteiro,cru7  1
 UP BND1      Ovo,decodorna,inteiro,cru7  151
 LO BND1      Laranja,daterra,suco8  1
 UP BND1      Laranja,daterra,suco8  151
 LO BND1      Seletadelegumes,enlatada9  1
 UP BND1      Seletadelegumes,enlatada9  151
 LO BND1      Atum,fresco,cru10  1
 UP BND1      Atum,fresco,cru10  151
 LO BND1      CremedeLeite11  1
 UP BND1      CremedeLeite11  151
 LO BND1      Tomate,purê12  1
 UP BND1      Tomate,purê12  151
 LO BND1      Margarina,comóleohidrogenado,comsal(65%delipídeos)13  1
 UP BND1      Margarina,comóleohidrogenado,comsal(65%delipídeos)13  151
 LO BND1      Melancia,crua14  1
 UP BND1      Melancia,crua14  151
ENDATA
